; ./sv-comp/./2015-05-26/ALIA/sdv/sdv948_000.smt2
(set-logic HORN)

(declare-fun |Proc14| ( Int Int Int Bool Int Int Int Int ) Bool)
(declare-fun |Proc29| ( Int Int Int Bool Int Int Int Bool Int ) Bool)
(declare-fun |Proc31| ( Int Int Int Bool Int ) Bool)
(declare-fun |P!!12| ( Int Int Int Int Int Int Int Int Int Int Int Bool Int Int Int Int ) Bool)
(declare-fun |Proc8| ( Int Int Int Bool Int Int ) Bool)
(declare-fun |Proc19| ( Int Int Int Bool Int Int ) Bool)
(declare-fun |P!!4| ( Int Int Int Int Int Int Int Int Int Int Int Int Int Int Int Int Int Int Int Bool ) Bool)
(declare-fun |Proc32| ( Int Int Int Bool Int ) Bool)
(declare-fun |P!!8| ( Int Int Int Int Int Int Bool Int Int Int Int ) Bool)
(declare-fun |Proc9| ( Int Int Int Bool Int Int ) Bool)
(declare-fun |Proc39| ( Int Int Int Bool Int ) Bool)
(declare-fun |Proc13| ( Int Int Int Bool Int Int Int Int ) Bool)
(declare-fun |P!!7| ( Int Int Int Int Int Int Bool Int Int Int Int ) Bool)
(declare-fun |Proc27| ( Int Int Int Bool Int ) Bool)
(declare-fun |Proc43| ( Int Int Int Bool Int ) Bool)
(declare-fun |P!!2| ( Int Int Int Int Int Int Int Int Int Int Int Int Int Int Int Int Int Int Int Bool Int Int Int Int ) Bool)
(declare-fun |Proc35| ( Int Int Int Bool Int ) Bool)
(declare-fun |P!!3| ( Int Int Int Int Int Int Int Int Int Int Int Int Int Int Int Int Int Int Int Bool Int Int ) Bool)
(declare-fun |Proc20| ( Int Int Int Bool Int Int Int ) Bool)
(declare-fun |Proc11| ( Int Int Int Bool Int Int ) Bool)
(declare-fun |Proc24| ( Int Int Int Bool ) Bool)
(declare-fun |P!!1| ( Int Int Int Int Int Int Int Int Bool Int Int Int Int ) Bool)
(declare-fun |Proc41| ( Int Int Int Bool Int ) Bool)
(declare-fun |Proc7| ( Int Int Int Bool ) Bool)
(declare-fun |Proc16| ( Int Int Int Bool Int Int ) Bool)
(declare-fun |Proc44| ( Int Int Int Bool ) Bool)
(declare-fun |Proc3| ( Int Int Int Bool Int Int ) Bool)
(declare-fun |Proc2| ( Int Int Int Bool Int Int Int Int ) Bool)
(declare-fun |P!!6| ( Int Int Int Int Int Int Int Int Int Int Int Int Int Int Int Int Bool ) Bool)
(declare-fun |P!!13| ( Int Int Int Int Int Int Int Int Int Int Int Int Int Int Int Int Int Bool Int Int Int Int ) Bool)
(declare-fun |Proc10| ( Int Int Int Bool Int Int Int Int ) Bool)
(declare-fun |Proc48| ( Int Int Int Bool Int Bool Int Int Int ) Bool)
(declare-fun |P!!5| ( Int Int Int Int Int Int Int Int Int Int Int Int Int Int Int Int Int Int Int Bool ) Bool)
(declare-fun |Proc33| ( Int Int Int Bool Int ) Bool)
(declare-fun |Proc12| ( Int Int Int Bool Int Int ) Bool)
(declare-fun |P!!11| ( Int Int Int Int Int Int Int Int Int Int Int Bool Int Int Int Int ) Bool)
(declare-fun |Proc46| ( Int Int Int Bool Int Int Int Int Int ) Bool)
(declare-fun |Proc18| ( Int Int Int Bool Int ) Bool)
(declare-fun |Proc42| ( Int Int Int Bool Int ) Bool)
(declare-fun |Proc36| ( Int Int Int Bool Int ) Bool)
(declare-fun |Proc26| ( Int Int Int Bool Int Int ) Bool)
(declare-fun |P!!14| ( Int Int Int Int Int Int Int Int Int Bool Int Int Int Int ) Bool)
(declare-fun |Proc47| ( Int Int Int Bool ) Bool)
(declare-fun |P!!9| ( Int Int Int Int Int Int Bool Int Int ) Bool)
(declare-fun |Proc17| ( Int Int Int Bool Int Int ) Bool)
(declare-fun |Proc21| ( Int Int Int Bool Int Int ) Bool)
(declare-fun |Proc22| ( Int Int Int Bool ) Bool)
(declare-fun |Proc23| ( Int Int Int Bool ) Bool)
(declare-fun |Proc40| ( Int Int Int Bool Int ) Bool)
(declare-fun |Proc15| ( Int Int Int Bool Int Int Int Int ) Bool)
(declare-fun |Proc37| ( Int Int Int Bool Int ) Bool)
(declare-fun |Proc30| ( Int Int Int Bool Int ) Bool)
(declare-fun |Proc4| ( Int Int Int Bool Int Int Int ) Bool)
(declare-fun |Proc6| ( Int Int Int Bool Int Int Int ) Bool)
(declare-fun |Proc25| ( Int Int Int Bool ) Bool)
(declare-fun |P!!10| ( Int Int Int Bool Int Int Int Int ) Bool)
(declare-fun |Proc45| ( Int Int Int Bool Int Int Int Int ) Bool)
(declare-fun |Proc38| ( Int Int Int Bool Int ) Bool)
(declare-fun |Proc28| ( Int Int Int Bool Int Int ) Bool)
(declare-fun |Proc1| ( Int Int Int Bool Int ) Bool)
(declare-fun |Proc0| ( Int Int Int Bool Int ) Bool)
(declare-fun |Proc34| ( Int Int Int Bool Int ) Bool)

(assert
  (forall ( (A Int) (B Int) (C Int) (D Int) (E Bool) ) 
    (=>
      (and
        (= E true)
      )
      (Proc0 D C B E A)
    )
  )
)
(assert
  (forall ( (A Int) (B Int) (C Int) (D Int) (E Bool) ) 
    (=>
      (and
        (= E true)
      )
      (Proc1 D C B E A)
    )
  )
)
(assert
  (forall ( (A Int) (B Int) (C Int) (D Int) (E Bool) (F Int) (G Int) (H Int) (I Int) ) 
    (=>
      (and
        (and (= E true) (= I H))
      )
      (Proc2 G F D E C B A I)
    )
  )
)
(assert
  (forall ( (A Int) (B Int) (C Int) (D Int) (E Bool) (F Int) (G Int) (H Int) (I Int) (J Int) ) 
    (=>
      (and
        (Proc3 H G F E J D)
        (and (= C H) (= B D) (not (<= H (+ 1 J))) (not (<= H I)) (= E true) (= J I))
      )
      (Proc4 I G F E A C B)
    )
  )
)
(assert
  (forall ( (A Int) (B Int) (C Int) (D Int) (E Bool) (F Int) ) 
    (=>
      (and
        (and (= E true) (= F 1))
      )
      (Proc3 D C B E A F)
    )
  )
)
(assert
  (forall ( (A Int) (B Int) (C Int) (D Int) (E Bool) (F Int) (G Int) (H Int) (I Int) (J Int) (K Int) (L Int) (M Int) ) 
    (=>
      (and
        (P!!1 M L K J I H G F E D C B A)
        (= E true)
      )
      (Proc6 L M K E J D C)
    )
  )
)
(assert
  (forall ( (A Int) (B Int) (C Int) (D Int) (E Bool) (F Int) (G Int) (H Int) (I Int) (J Int) (K Int) (L Int) (M Int) ) 
    (=>
      (and
        (Proc4 L M K E J I H)
        (let ((a!1 (or (and (= F I) (= G H) (= H 1) (= D F) (= C G))
               (and (= F I) (= G H) (not (= H 1)) (= D F) (= C G)))))
  (and a!1 (not (= M 0))))
      )
      (P!!1 M L K J I H G F E D C B A)
    )
  )
)
(assert
  (forall ( (A Int) (B Int) (C Int) (D Int) (E Bool) (F Int) (G Int) (H Int) (I Int) (J Int) (K Int) (L Int) (M Int) (N Int) (O Int) (P Int) (Q Int) (R Int) (S Int) (T Int) (U Int) (V Int) (W Int) (X Int) (Y Int) ) 
    (=>
      (and
        (P!!2 Y X W V U S R Q P O N M L K J I H G F E D C B A)
        (Proc7 Y X W E)
        (Proc8 Y X W E U T)
        (and (not (= U 0)) (= E true) (not (= V 0)))
      )
      (Proc15 Y X W E V S J I)
    )
  )
)
(assert
  (forall ( (A Int) (B Int) (C Int) (D Int) (E Bool) (F Int) (G Int) (H Int) (I Int) (J Int) (K Int) (L Int) (M Int) (N Int) (O Int) (P Int) (Q Int) (R Int) (S Int) (T Int) (U Int) (V Int) (W Int) (X Int) (v_24 Int) ) 
    (=>
      (and
        (Proc12 X W V E S v_24)
        (Proc11 X W V E T B)
        (and (= 0 v_24)
     (= J L)
     (= I K)
     (= A (- 1073741810))
     (= L A)
     (not (= S 0))
     (= K X))
      )
      (P!!2 X W V U T S R Q P O N M L K J I H G F E D C B A)
    )
  )
)
(assert
  (forall ( (A Int) (B Int) (C Int) (D Int) (E Bool) (F Int) (G Int) (H Int) (I Int) (J Int) (K Int) (L Int) (M Int) (N Int) (O Int) (P Int) (Q Int) (R Int) (S Int) (T Int) (U Int) (V Int) (W Int) (X Int) ) 
    (=>
      (and
        (P!!3 X W V U T S R Q P O N M L K J I H G F E D C)
        (not (= T 0))
      )
      (P!!2 X W V U T S R Q P O N M L K J I H G F E D C B A)
    )
  )
)
(assert
  (forall ( (A Int) (B Int) (C Bool) (D Int) (E Int) (F Int) (G Int) (H Int) (I Int) (J Int) (K Int) (L Int) (M Int) (N Int) (O Int) (P Int) (Q Int) (R Int) (S Int) (T Int) (U Int) (V Int) ) 
    (=>
      (and
        (Proc14 V U T C R Q B A)
        (and (= H J) (= G I) (= J B) (= I A))
      )
      (P!!3 V U T S R Q P O N M L K J I H G F E D C B A)
    )
  )
)
(assert
  (forall ( (A Int) (B Int) (C Bool) (D Int) (E Int) (F Int) (G Int) (H Int) (I Int) (J Int) (K Int) (L Int) (M Int) (N Int) (O Int) (P Int) (Q Int) (R Int) (S Int) (T Int) (U Int) (V Int) ) 
    (=>
      (and
        (P!!4 V U T S R Q P O N M L K J I H G F E D C)
        (Proc9 V U T C Q P)
        (not (= P 0))
      )
      (P!!3 V U T S R Q P O N M L K J I H G F E D C B A)
    )
  )
)
(assert
  (forall ( (A Bool) (B Int) (C Int) (D Int) (E Int) (F Int) (G Int) (H Int) (I Int) (J Int) (K Int) (L Int) (M Int) (N Int) (O Int) (P Int) (Q Int) (R Int) (S Int) (T Int) ) 
    (=>
      (and
        (P!!5 T S R Q P O N M L K J I H G F E D C B A)
        (not (= N 0))
      )
      (P!!4 T S R Q P O N M L K J I H G F E D C B A)
    )
  )
)
(assert
  (forall ( (A Bool) (B Int) (C Int) (D Int) (E Int) (F Int) (G Int) (H Int) (I Int) (J Int) (K Int) (L Int) (M Int) (N Int) (O Int) (P Int) (Q Int) (R Int) (S Int) (T Int) ) 
    (=>
      (and
        (P!!6 T S R Q P O K J I H G F E D C B A)
        (not (= N 0))
      )
      (P!!5 T S R Q P O N M L K J I H G F E D C B A)
    )
  )
)
(assert
  (forall ( (A Bool) (B Int) (C Int) (D Int) (E Int) (F Int) (G Int) (H Int) (I Int) (J Int) (K Int) (L Int) (M Int) (N Int) (O Int) (P Int) (Q Int) ) 
    (=>
      (and
        (Proc13 Q P O A N L C B)
        (Proc11 K P O A M I)
        (and (= F H) (= E G) (= H J) (= K B) (= J C) (= G K))
      )
      (P!!6 Q P O N M L K J I H G F E D C B A)
    )
  )
)
(assert
  (forall ( (A Bool) (B Int) (C Int) (D Int) (E Int) (F Int) (G Int) (H Int) (I Int) (J Int) (K Int) (L Int) (M Int) (N Int) (O Int) (P Int) (Q Int) (v_17 Int) ) 
    (=>
      (and
        (Proc12 Q P O A L v_17)
        (Proc11 K P O A M I)
        (and (= 0 v_17)
     (= G K)
     (= F H)
     (= E G)
     (= H J)
     (not (= L 0))
     (= K Q)
     (= J D)
     (= D (- 1073741823)))
      )
      (P!!6 Q P O N M L K J I H G F E D C B A)
    )
  )
)
(assert
  (forall ( (A Bool) (B Int) (C Int) (D Int) (E Int) (F Int) (G Int) (H Int) (I Int) (J Int) (K Int) (L Int) (M Int) (N Int) (O Int) (P Int) (Q Int) (R Int) (S Int) (T Int) ) 
    (=>
      (and
        (Proc10 T S R A Q O M L)
        (Proc11 K S R A P I)
        (and (= F H) (= E G) (= J M) (= H J) (= K L) (= G K))
      )
      (P!!5 T S R Q P O N M L K J I H G F E D C B A)
    )
  )
)
(assert
  (forall ( (A Bool) (B Int) (C Int) (D Int) (E Int) (F Int) (G Int) (H Int) (I Int) (J Int) (K Int) (L Int) (M Int) (N Int) (O Int) (P Int) (Q Int) (R Int) (S Int) (T Int) ) 
    (=>
      (and
        (Proc10 T S R A Q O M L)
        (Proc11 K S R A P I)
        (and (= F H) (= E G) (= J M) (= H J) (= K L) (= G K))
      )
      (P!!4 T S R Q P O N M L K J I H G F E D C B A)
    )
  )
)
(assert
  (forall ( (A Int) (B Int) (C Int) (D Int) (E Bool) (F Int) (G Int) (H Int) (I Int) (J Int) (K Int) (L Int) (M Int) (N Int) (O Int) ) 
    (=>
      (and
        (P!!7 N M K I G F E D C B A)
        (Proc7 O N M E)
        (Proc9 K N M E I H)
        (and (not (= H 0))
     (= L O)
     (not (<= K (+ 1 L)))
     (not (<= K O))
     (= E true)
     (not (= J 0)))
      )
      (Proc13 O N M E J I D C)
    )
  )
)
(assert
  (forall ( (A Int) (B Int) (C Int) (D Int) (E Bool) (F Int) (G Int) (H Int) (I Int) (J Int) (K Int) (v_11 Int) ) 
    (=>
      (and
        (Proc0 I K J E A)
        (Proc12 I K J E H v_11)
        (and (= 0 v_11) (= F 0) (= D F) (= C I) (not (= H 0)) (not (= B 0)))
      )
      (P!!7 K J I H G F E D C B A)
    )
  )
)
(assert
  (forall ( (A Int) (B Int) (C Int) (D Int) (E Bool) (F Int) (G Int) (H Int) (I Int) (J Int) (K Int) (v_11 Int) ) 
    (=>
      (and
        (Proc12 I K J E H v_11)
        (and (= 0 v_11) (= D F) (= C I) (not (= H 0)) (= G (- 1073741808)) (= F G))
      )
      (P!!7 K J I H G F E D C B A)
    )
  )
)
(assert
  (forall ( (A Int) (B Int) (C Int) (D Int) (E Bool) (F Int) (G Int) (H Int) (I Int) (J Int) (K Int) (L Int) ) 
    (=>
      (and
        (P!!8 L J I H G F E D C B A)
        (Proc16 J I H E K G)
        (and (= K (+ 276 L)) (= E true) (not (= L 0)))
      )
      (Proc11 J I H E L F)
    )
  )
)
(assert
  (forall ( (A Int) (B Int) (C Int) (D Int) (E Bool) (F Int) (G Int) (H Int) (I Int) (J Int) (K Int) (v_11 Int) (v_12 Int) ) 
    (=>
      (and
        (P!!9 K J I H G F E D C)
        (Proc2 J I H E B v_11 v_12 A)
        (and (= 0 v_11) (= 0 v_12) (= B (+ 164 K)) (not (= K 0)) (= 1 G))
      )
      (P!!8 K J I H G F E D C B A)
    )
  )
)
(assert
  (forall ( (A Int) (B Int) (C Bool) (D Int) (E Int) (F Int) (G Int) (H Int) (I Int) (v_9 Int) (v_10 Int) ) 
    (=>
      (and
        (Proc2 H G F C B v_9 v_10 A)
        (and (= 0 v_9) (= 0 v_10) (= D E) (= B (+ 52 I)) (= E 0) (not (= I 0)))
      )
      (P!!9 I H G F E D C B A)
    )
  )
)
(assert
  (forall ( (A Int) (B Int) (C Bool) (D Int) (E Int) (F Int) (G Int) (H Int) (I Int) ) 
    (=>
      (and
        (and (not (= E 0)) (= D E))
      )
      (P!!9 I H G F E D C B A)
    )
  )
)
(assert
  (forall ( (A Int) (B Int) (C Int) (D Int) (E Bool) (F Int) (G Int) (H Int) (I Int) (J Int) (K Int) ) 
    (=>
      (and
        (P!!9 K J I H G F E D C)
        (not (= 1 G))
      )
      (P!!8 K J I H G F E D C B A)
    )
  )
)
(assert
  (forall ( (A Int) (B Int) (C Int) (D Int) (E Bool) (F Int) (G Int) (H Int) (I Int) ) 
    (=>
      (and
        (P!!10 I G F E D C B A)
        (Proc17 G F D E H C)
        (and (= H (+ 276 I)) (= E true) (not (= I 0)))
      )
      (Proc8 G F D E I B)
    )
  )
)
(assert
  (forall ( (A Int) (B Int) (C Int) (D Int) (E Bool) (F Int) (G Int) (H Int) ) 
    (=>
      (and
        (Proc1 G F D E A)
        (and (not (= H 0)) (= B C) (= A (+ 164 H)) (= 2 C))
      )
      (P!!10 H G F E D C B A)
    )
  )
)
(assert
  (forall ( (A Int) (B Int) (C Int) (D Int) (E Bool) (F Int) (G Int) (H Int) ) 
    (=>
      (and
        (and (= B C) (not (= 2 C)))
      )
      (P!!10 H G F E D C B A)
    )
  )
)
(assert
  (forall ( (A Int) (B Int) (C Int) (D Int) (E Bool) (F Int) (G Int) (H Int) (I Int) (J Int) (K Int) (L Int) (M Int) (N Int) (O Int) (P Int) (Q Int) (R Int) (S Int) (T Int) (U Int) (V Int) (v_22 Int) ) 
    (=>
      (and
        (P!!11 R Q P O N K J I H G F E D C B A)
        (Proc18 R Q P E O)
        (Proc19 R Q P E M V)
        (Proc20 R Q P E O v_22 L)
        (and (= 220 v_22)
     (= V U)
     (not (= O 0))
     (not (= N 0))
     (= S T)
     (not (<= T (+ 4 V)))
     (not (<= T U))
     (not (<= R (+ 1 S)))
     (not (<= R T))
     (= E true)
     (= M (+ 48 N)))
      )
      (Proc14 U Q P E N O G F)
    )
  )
)
(assert
  (forall ( (A Int) (B Int) (C Int) (D Int) (E Bool) (F Int) (G Int) (H Int) (I Int) (J Int) (K Int) (L Int) (M Int) (N Int) (O Int) (P Int) (v_16 Int) ) 
    (=>
      (and
        (Proc20 P O N E M v_16 D)
        (P!!12 P O N M L K J I H G F E D C B A)
        (= 0 v_16)
      )
      (P!!11 P O N M L K J I H G F E D C B A)
    )
  )
)
(assert
  (forall ( (A Int) (B Int) (C Int) (D Int) (E Bool) (F Int) (G Int) (H Int) (I Int) (J Int) (K Int) (L Int) (M Int) (N Int) (O Int) (P Int) ) 
    (=>
      (and
        (Proc21 P O N E K J)
        (Proc11 P O N E L I)
        (and (= D 0) (= G H) (= K (+ 48 L)) (= H 259) (not (= L 0)) (= F P))
      )
      (P!!12 P O N M L K J I H G F E D C B A)
    )
  )
)
(assert
  (forall ( (A Int) (B Int) (C Int) (D Int) (E Bool) (F Int) (G Int) (H Int) (I Int) (J Int) (K Int) (L Int) (M Int) (N Int) (O Int) (P Int) (v_16 Int) ) 
    (=>
      (and
        (Proc21 P O N E C B)
        (Proc12 P O N E M v_16)
        (Proc11 P O N E L A)
        (and (= 0 v_16)
     (= F P)
     (not (= D 0))
     (= G H)
     (= H 259)
     (not (= M 0))
     (not (= L 0))
     (= C (+ 48 L)))
      )
      (P!!12 P O N M L K J I H G F E D C B A)
    )
  )
)
(assert
  (forall ( (A Int) (B Int) (C Int) (D Int) (E Bool) (F Int) (G Int) (H Int) (I Int) (J Int) (K Int) (L Int) (M Int) (N Int) (O Int) (P Int) ) 
    (=>
      (and
        (Proc21 P O N E K J)
        (Proc11 P O N E L I)
        (and (= G H) (= K (+ 48 L)) (= H 259) (not (= L 0)) (= F P))
      )
      (P!!11 P O N M L K J I H G F E D C B A)
    )
  )
)
(assert
  (forall ( (A Int) (B Int) (C Int) (D Int) (E Bool) (F Int) (G Int) (H Int) (I Int) (J Int) (v_10 Int) ) 
    (=>
      (and
        (Proc7 J I H E)
        (Proc12 D I H E C v_10)
        (and (= 0 v_10)
     (not (= C 0))
     (= B 0)
     (not (= G 0))
     (= F J)
     (not (<= D (+ 1 F)))
     (not (<= D J))
     (= E true)
     (= A D))
      )
      (Proc10 J I H E G C B A)
    )
  )
)
(assert
  (forall ( (A Int) (B Int) (C Int) (D Bool) ) 
    (=>
      (and
        (= D true)
      )
      (Proc22 C B A D)
    )
  )
)
(assert
  (forall ( (A Int) (B Int) (C Int) (D Bool) ) 
    (=>
      (and
        (= D true)
      )
      (Proc23 C B A D)
    )
  )
)
(assert
  (forall ( (A Int) (B Int) (C Int) (D Bool) ) 
    (=>
      (and
        (= D true)
      )
      (Proc24 C B A D)
    )
  )
)
(assert
  (forall ( (A Int) (B Int) (C Int) (D Bool) ) 
    (=>
      (and
        (= D true)
      )
      (Proc25 C B A D)
    )
  )
)
(assert
  (forall ( (A Int) (B Int) (C Int) (D Int) (E Bool) (F Int) ) 
    (=>
      (and
        (and (= D 0) (= E true) (= F 0))
      )
      (Proc26 C B A E F D)
    )
  )
)
(assert
  (forall ( (A Int) (B Int) (C Int) (D Int) (E Bool) (F Int) (G Int) (H Int) (I Int) (J Int) (K Int) (L Int) (M Int) (N Int) (O Int) (P Int) (Q Bool) (R Bool) (S Bool) ) 
    (=>
      (and
        (Proc27 P O N S M)
        (Proc26 M O N S L K)
        (Proc25 M L K S)
        (Proc24 M L K S)
        (Proc23 M L K S)
        (Proc22 M L K S)
        (Proc28 M L K S J I)
        (let ((a!1 (or (and (not R)
                    (= H G)
                    (not (= I 0))
                    (= B J)
                    (= C I)
                    (= D L)
                    (= F H)
                    (= Q R))
               (and (= H A)
                    (= I 0)
                    (= B J)
                    (= C I)
                    (= D L)
                    (= F H)
                    (= R E)
                    (= E S)
                    (= Q R)))))
(let ((a!2 (or (and a!1 (not (= I 1))) (and a!1 (= I 1)))))
  (and a!2 (= S true) (not (<= P 0)))))
      )
      (Proc29 P O N S F D C Q B)
    )
  )
)
(assert
  (forall ( (A Int) (B Int) (C Int) (D Int) (E Bool) ) 
    (=>
      (and
        (and (= E true) (= D 1))
      )
      (Proc30 C B A E D)
    )
  )
)
(assert
  (forall ( (A Int) (B Int) (C Int) (D Int) (E Bool) ) 
    (=>
      (and
        (and (= E true) (= D 1))
      )
      (Proc31 C B A E D)
    )
  )
)
(assert
  (forall ( (A Int) (B Int) (C Int) (D Int) (E Bool) ) 
    (=>
      (and
        (and (= E true) (= D 1))
      )
      (Proc32 C B A E D)
    )
  )
)
(assert
  (forall ( (A Int) (B Int) (C Int) (D Int) (E Bool) ) 
    (=>
      (and
        (and (= E true) (= D 0))
      )
      (Proc33 C B A E D)
    )
  )
)
(assert
  (forall ( (A Int) (B Int) (C Int) (D Int) (E Bool) ) 
    (=>
      (and
        (and (= E true) (= D 1))
      )
      (Proc34 C B A E D)
    )
  )
)
(assert
  (forall ( (A Int) (B Int) (C Int) (D Int) (E Bool) ) 
    (=>
      (and
        (and (= E true) (= D 0))
      )
      (Proc35 C B A E D)
    )
  )
)
(assert
  (forall ( (A Int) (B Int) (C Int) (D Int) (E Bool) ) 
    (=>
      (and
        (and (= E true) (= D 1))
      )
      (Proc36 C B A E D)
    )
  )
)
(assert
  (forall ( (A Int) (B Int) (C Int) (D Int) (E Bool) ) 
    (=>
      (and
        (and (= E true) (= D 1))
      )
      (Proc37 C B A E D)
    )
  )
)
(assert
  (forall ( (A Int) (B Int) (C Int) (D Int) (E Bool) ) 
    (=>
      (and
        (and (= E true) (= D 0))
      )
      (Proc38 C B A E D)
    )
  )
)
(assert
  (forall ( (A Int) (B Int) (C Int) (D Int) (E Bool) ) 
    (=>
      (and
        (and (= E true) (= D 0))
      )
      (Proc39 C B A E D)
    )
  )
)
(assert
  (forall ( (A Int) (B Int) (C Int) (D Int) (E Bool) ) 
    (=>
      (and
        (and (= E true) (= D 0))
      )
      (Proc40 C B A E D)
    )
  )
)
(assert
  (forall ( (A Int) (B Int) (C Int) (D Int) (E Bool) (F Int) ) 
    (=>
      (and
        (and (= D F) (= E true) (= F (- 1073741823)))
      )
      (Proc41 C B A E D)
    )
  )
)
(assert
  (forall ( (A Int) (B Int) (C Int) (D Int) (E Bool) (F Int) (G Int) ) 
    (=>
      (and
        (and (= F D) (= E true) (not (= G 0)))
      )
      (Proc16 C B A E G F)
    )
  )
)
(assert
  (forall ( (A Int) (B Int) (C Int) (D Int) (E Bool) (F Int) (G Int) ) 
    (=>
      (and
        (and (= F D) (= E true) (not (= G 0)))
      )
      (Proc17 C B A E G F)
    )
  )
)
(assert
  (forall ( (A Int) (B Int) (C Int) (D Int) (E Bool) (F Int) ) 
    (=>
      (and
        (= E true)
      )
      (Proc12 F D C E B A)
    )
  )
)
(assert
  (forall ( (A Int) (B Int) (C Int) (D Int) (E Bool) ) 
    (=>
      (and
        (and (= E true) (= D 1))
      )
      (Proc42 C B A E D)
    )
  )
)
(assert
  (forall ( (A Int) (B Int) (C Int) (D Int) (E Bool) (F Int) (G Int) ) 
    (=>
      (and
        (and (= F D) (= E true) (not (= G 0)))
      )
      (Proc9 C B A E G F)
    )
  )
)
(assert
  (forall ( (A Int) (B Int) (C Int) (D Int) (E Bool) ) 
    (=>
      (and
        (= E true)
      )
      (Proc18 D C B E A)
    )
  )
)
(assert
  (forall ( (A Int) (B Int) (C Int) (D Int) (E Bool) (F Int) (G Int) (H Int) ) 
    (=>
      (and
        (and (= G F) (= E true) (not (= H 0)))
      )
      (Proc20 D C B E H A G)
    )
  )
)
(assert
  (forall ( (A Int) (B Int) (C Int) (D Int) (E Bool) (F Int) ) 
    (=>
      (and
        (and (= E true) (not (= F 0)))
      )
      (Proc19 D C B E A F)
    )
  )
)
(assert
  (forall ( (A Int) (B Int) (C Int) (D Int) (E Bool) (F Int) ) 
    (=>
      (and
        (= E true)
      )
      (Proc21 F D C E B A)
    )
  )
)
(assert
  (forall ( (A Int) (B Int) (C Int) (D Int) (E Bool) (F Int) (G Int) (H Int) (I Int) (J Int) (K Int) (L Int) (M Int) (N Int) (O Int) (P Int) (Q Int) (R Int) (S Int) (T Int) (U Int) (V Int) ) 
    (=>
      (and
        (Proc44 U T S E)
        (P!!13 V U T S R Q P O N M L K J I H G F E D C B A)
        (Proc43 U T S E V)
        (and (not (= R 0)) (= E true) (not (= V 0)))
      )
      (Proc46 U T S E F V J I H)
    )
  )
)
(assert
  (forall ( (A Int) (B Int) (C Int) (D Int) (E Bool) (F Int) (G Int) (H Int) (I Int) (J Int) (K Int) (L Int) (M Int) (N Int) (O Int) (P Int) (Q Int) (R Int) (S Int) (T Int) (U Int) (V Int) ) 
    (=>
      (and
        (Proc41 U T S E A)
        (Proc45 O T S E P V N M)
        (let ((a!1 (or (and (= M 1) (= J L) (= L K) (= H M) (= I N))
               (and (not (= V 0)) (not (= M 1)) (= J L) (= L P) (= H M) (= I N)))))
  (and (= O U) a!1 (= P A)))
      )
      (P!!13 V U T S R Q P O N M L K J I H G F E D C B A)
    )
  )
)
(assert
  (forall ( (A Int) (B Int) (C Int) (D Int) (E Bool) (F Int) (G Int) (H Int) (I Int) (J Int) (K Int) (L Int) (M Int) (N Int) (O Int) (P Int) (Q Int) (R Int) (S Int) (T Int) (U Int) (V Int) ) 
    (=>
      (and
        (Proc41 U T S E B)
        (Proc45 O T S E P V N M)
        (let ((a!1 (or (and (= M 1) (= J L) (= L K) (= H M) (= I N))
               (and (not (= V 0)) (not (= M 1)) (= J L) (= L P) (= H M) (= I N)))))
  (and (= O U) a!1 (= P B)))
      )
      (P!!13 V U T S R Q P O N M L K J I H G F E D C B A)
    )
  )
)
(assert
  (forall ( (A Int) (B Int) (C Int) (D Int) (E Bool) (F Int) (G Int) (H Int) (I Int) (J Int) (K Int) (L Int) (M Int) (N Int) (O Int) (P Int) (Q Int) (R Int) (S Int) (T Int) (U Int) (V Int) ) 
    (=>
      (and
        (Proc15 U T S E F V D C)
        (Proc45 O T S E P V N M)
        (let ((a!1 (or (and (= M 1) (= J L) (= L K) (= H M) (= I N))
               (and (not (= V 0)) (not (= M 1)) (= J L) (= L P) (= H M) (= I N)))))
  (and (= O C) (not (= R 0)) a!1 (= P D)))
      )
      (P!!13 V U T S R Q P O N M L K J I H G F E D C B A)
    )
  )
)
(assert
  (forall ( (A Int) (B Int) (C Int) (D Int) (E Bool) (F Int) (G Int) (H Int) (I Int) (J Int) (K Int) (L Int) (M Int) (N Int) (O Int) (P Int) (Q Int) (R Int) (S Int) (T Int) (U Int) (V Int) ) 
    (=>
      (and
        (Proc41 U T S E G)
        (Proc45 O T S E P V N M)
        (let ((a!1 (or (and (= M 1) (= J L) (= L K) (= H M) (= I N))
               (and (not (= V 0)) (not (= M 1)) (= J L) (= L P) (= H M) (= I N)))))
  (and (= O U) (not (= R 0)) a!1 (= P G)))
      )
      (P!!13 V U T S R Q P O N M L K J I H G F E D C B A)
    )
  )
)
(assert
  (forall ( (A Int) (B Int) (C Int) (D Int) (E Bool) (F Int) (G Int) (H Int) (I Int) (J Int) (K Int) (L Int) (M Int) (N Int) (O Int) (P Int) (Q Int) (R Int) (S Int) (T Int) (U Int) (V Int) ) 
    (=>
      (and
        (Proc41 U T S E Q)
        (Proc45 O T S E P V N M)
        (let ((a!1 (or (and (= M 1) (= J L) (= L K) (= H M) (= I N))
               (and (not (= V 0)) (not (= M 1)) (= J L) (= L P) (= H M) (= I N)))))
  (and (= O U) (not (= R 0)) a!1 (= P Q)))
      )
      (P!!13 V U T S R Q P O N M L K J I H G F E D C B A)
    )
  )
)
(assert
  (forall ( (A Int) (B Int) (C Int) (D Int) (E Bool) ) 
    (=>
      (and
        (and (= E true) (not (= D 0)))
      )
      (Proc43 C B A E D)
    )
  )
)
(assert
  (forall ( (A Int) (B Int) (C Int) (D Bool) ) 
    (=>
      (and
        (= D true)
      )
      (Proc7 C B A D)
    )
  )
)
(assert
  (forall ( (A Int) (B Int) (C Int) (D Int) (E Bool) (F Int) (G Int) (H Int) (I Int) (J Int) (K Int) (L Int) (M Int) (N Int) (O Int) (P Int) (Q Int) (R Int) (S Int) (T Int) (U Int) (V Int) (W Int) (X Int) (Y Int) ) 
    (=>
      (and
        (Proc34 Y X W E K)
        (P!!14 Y X W V J I H G F E D C B A)
        (Proc32 Y X W E V)
        (Proc39 Y X W E U)
        (Proc33 Y X W E T)
        (Proc38 Y X W E S)
        (Proc31 Y X W E R)
        (Proc35 Y X W E Q)
        (Proc42 Y X W E P)
        (Proc40 Y X W E O)
        (Proc30 Y X W E N)
        (Proc36 Y X W E M)
        (Proc37 Y X W E L)
        (= E true)
      )
      (Proc28 Y X W E H G)
    )
  )
)
(assert
  (forall ( (A Int) (B Int) (C Int) (D Int) (E Bool) (F Int) (G Int) (H Int) (I Int) (J Int) (K Int) (L Int) (M Int) (N Int) ) 
    (=>
      (and
        (and (= H I) (= G J) (= K 0) (= J L) (= I N))
      )
      (P!!14 N M L K J I H G F E D C B A)
    )
  )
)
(assert
  (forall ( (A Int) (B Int) (C Int) (D Int) (E Bool) (F Int) (G Int) (H Int) (I Int) (J Int) (K Int) (L Int) (M Int) (N Int) ) 
    (=>
      (and
        (Proc46 N M L E F D C B A)
        (Proc47 N M L E)
        (let ((a!1 (or (and (= J A) (= G J) (= H I) (= I B) (not (= A 1)))
               (and (= J A) (= G J) (= H I) (= I B) (= A 1)))))
  (and a!1 (not (= K 0))))
      )
      (P!!14 N M L K J I H G F E D C B A)
    )
  )
)
(assert
  (forall ( (A Int) (B Int) (C Int) (D Int) (E Bool) (F Int) (G Int) (H Int) (I Int) (J Int) (K Int) (L Int) (M Int) (N Int) ) 
    (=>
      (and
        (and (= H I) (= G J) (= J L) (= I N))
      )
      (P!!14 N M L K J I H G F E D C B A)
    )
  )
)
(assert
  (forall ( (A Int) (B Int) (C Int) (D Bool) ) 
    (=>
      (and
        (= D true)
      )
      (Proc44 C B A D)
    )
  )
)
(assert
  (forall ( (A Int) (B Int) (C Int) (D Int) (E Bool) (F Int) (G Int) (H Int) (I Int) (J Int) (K Int) (L Int) ) 
    (=>
      (and
        (Proc6 J I H E L G F)
        (let ((a!1 (or (and (= D G) (not (= F 1)) (= C F))
               (and (= D G) (= F 1) (= C F)))))
  (and (not (<= J (+ 1 L))) (not (<= J K)) a!1 (= E true) (= L K)))
      )
      (Proc45 K I H E B A D C)
    )
  )
)
(assert
  (forall ( (A Int) (B Int) (C Int) (D Bool) ) 
    (=>
      (and
        (= D true)
      )
      (Proc47 C B A D)
    )
  )
)
(assert
  (forall ( (A Int) (B Int) (C Int) (D Int) (E Bool) (F Int) (G Int) (H Int) (I Int) (J Int) (K Int) (L Int) (M Int) (N Int) (O Int) (P Int) (Q Int) (R Int) (S Int) (T Int) (U Int) (V Int) (W Int) (X Int) (Y Int) (Z Int) (A1 Int) (B1 Int) (C1 Int) (D1 Int) (E1 Int) (F1 Int) (G1 Int) (H1 Int) (I1 Int) (J1 Int) (K1 Int) (L1 Int) (M1 Int) (N1 Int) (O1 Int) (P1 Int) (Q1 Int) (R1 Int) (S1 Int) (T1 Int) (U1 Int) (V1 Int) (W1 Int) (X1 Int) (Y1 Int) (Z1 Int) (A2 Int) (B2 Int) (C2 Int) (D2 Int) (E2 Int) (F2 Int) (G2 Int) (H2 Int) (I2 Int) (J2 Int) (K2 Int) (L2 Int) (M2 Int) (N2 Int) (O2 Int) (P2 Int) (Q2 Int) (R2 Int) (S2 Int) (T2 Int) (U2 Int) (V2 Int) (W2 Int) (X2 Int) (Y2 Int) (Z2 Int) (A3 Int) (B3 Int) (C3 Int) (D3 Int) (E3 Int) (F3 Int) (G3 Int) (H3 Int) (I3 Int) (J3 Int) (K3 Int) (L3 Int) (M3 Int) (N3 Int) (O3 Int) (P3 Int) (Q3 Int) (R3 Int) (S3 Int) (T3 Int) (U3 Int) (V3 Int) (W3 Int) (X3 Int) (Y3 Int) (Z3 Int) (A4 Int) (B4 Int) (C4 Int) (D4 Int) (E4 Int) (F4 Int) (G4 Int) (H4 Int) (I4 Int) (J4 Int) (K4 Int) (L4 Int) (M4 Int) (N4 Int) (O4 Int) (P4 Int) (Q4 Int) (R4 Int) (S4 Int) (T4 Int) (U4 Int) (V4 Int) (W4 Int) (X4 Int) (Y4 Int) (Z4 Int) (A5 Int) (B5 Int) (C5 Int) (D5 Int) (E5 Int) (F5 Int) (G5 Int) (H5 Int) (I5 Int) (J5 Int) (K5 Int) (L5 Int) (M5 Int) (N5 Int) (O5 Int) (P5 Int) (Q5 Int) (R5 Int) (S5 Int) (T5 Int) (U5 Int) (V5 Int) (W5 Int) (X5 Int) (Y5 Int) (Z5 Int) (A6 Int) (B6 Int) (C6 Int) (D6 Int) (E6 Int) (F6 Int) (G6 Int) (H6 Int) (I6 Int) (J6 Int) (K6 Int) (L6 Int) (M6 Int) (N6 Int) (O6 Int) (P6 Int) (Q6 Int) (R6 Int) (S6 Int) (T6 Int) (U6 Int) (V6 Int) (W6 Int) (X6 Int) (Y6 Int) (Z6 Int) (A7 Int) ) 
    (=>
      (and
        (and (= Z5 A6)
     (= X5 Y5)
     (= V5 W5)
     (= T5 U5)
     (= R5 S5)
     (= P5 Q5)
     (= N5 O5)
     (= L5 M5)
     (= J5 K5)
     (= H5 I5)
     (= F5 G5)
     (= D5 E5)
     (= B5 C5)
     (= Z4 A5)
     (= X4 Y4)
     (= V4 W4)
     (= T4 U4)
     (= R4 S4)
     (= P4 Q4)
     (= N4 O4)
     (= L4 M4)
     (= J4 K4)
     (= H4 I4)
     (= F4 G4)
     (= D4 E4)
     (= B4 C4)
     (= Z3 A4)
     (= X3 Y3)
     (= V3 W3)
     (= T3 U3)
     (= R3 S3)
     (= P3 Q3)
     (= N3 O3)
     (= L3 M3)
     (= J3 K3)
     (= H3 I3)
     (= F3 G3)
     (= D3 E3)
     (= B3 C3)
     (= Z2 A3)
     (= X2 Y2)
     (= V2 W2)
     (= T2 U2)
     (= R2 S2)
     (= P2 Q2)
     (= N2 O2)
     (= L2 M2)
     (= J2 K2)
     (= H2 I2)
     (= F2 G2)
     (= D2 E2)
     (= B2 C2)
     (= Z1 A2)
     (= X1 Y1)
     (= V1 W1)
     (= T1 U1)
     (= R1 S1)
     (= P1 Q1)
     (= N1 O1)
     (= L1 M1)
     (= J1 K1)
     (= H1 I1)
     (= F1 G1)
     (= D1 E1)
     (= B1 C1)
     (= Z A1)
     (= X Y)
     (= V W)
     (= T U)
     (= R S)
     (= P Q)
     (= N O)
     (= L M)
     (= J K)
     (= H I)
     (= F G)
     (= C D)
     (= N6 O6)
     (= L6 M6)
     (= J6 K6)
     (= H6 I6)
     (= F6 G6)
     (= D6 E6)
     (= P6 Q6)
     (= R6 S6)
     (= A7 Z6)
     (= V6 W6)
     (= T6 U6)
     (= X6 Y6)
     (not (<= A6 (+ 16 B6)))
     (not (<= A6 C6))
     (not (<= Y5 (+ 16 Z5)))
     (not (<= Y5 A6))
     (not (<= W5 (+ 16 X5)))
     (not (<= W5 Y5))
     (not (<= U5 (+ 16 V5)))
     (not (<= U5 W5))
     (not (<= S5 (+ 16 T5)))
     (not (<= S5 U5))
     (not (<= Q5 (+ 16 R5)))
     (not (<= Q5 S5))
     (not (<= O5 (+ 16 P5)))
     (not (<= O5 Q5))
     (not (<= M5 (+ 16 N5)))
     (not (<= M5 O5))
     (not (<= K5 (+ 16 L5)))
     (not (<= K5 M5))
     (not (<= I5 (+ 16 J5)))
     (not (<= I5 K5))
     (not (<= G5 (+ 16 H5)))
     (not (<= G5 I5))
     (not (<= E5 (+ 16 F5)))
     (not (<= E5 G5))
     (not (<= C5 (+ 16 D5)))
     (not (<= C5 E5))
     (not (<= A5 (+ 16 B5)))
     (not (<= A5 C5))
     (not (<= Y4 (+ 16 Z4)))
     (not (<= Y4 A5))
     (not (<= W4 (+ 16 X4)))
     (not (<= W4 Y4))
     (not (<= U4 (+ 16 V4)))
     (not (<= U4 W4))
     (not (<= S4 (+ 16 T4)))
     (not (<= S4 U4))
     (not (<= Q4 (+ 16 R4)))
     (not (<= Q4 S4))
     (not (<= O4 (+ 16 P4)))
     (not (<= O4 Q4))
     (not (<= M4 (+ 16 N4)))
     (not (<= M4 O4))
     (not (<= K4 (+ 16 L4)))
     (not (<= K4 M4))
     (not (<= I4 (+ 16 J4)))
     (not (<= I4 K4))
     (not (<= G4 (+ 16 H4)))
     (not (<= G4 I4))
     (not (<= E4 (+ 16 F4)))
     (not (<= E4 G4))
     (not (<= C4 (+ 16 D4)))
     (not (<= C4 E4))
     (not (<= A4 (+ 16 B4)))
     (not (<= A4 C4))
     (not (<= Y3 (+ 16 Z3)))
     (not (<= Y3 A4))
     (not (<= W3 (+ 16 X3)))
     (not (<= W3 Y3))
     (not (<= U3 (+ 16 V3)))
     (not (<= U3 W3))
     (not (<= S3 (+ 16 T3)))
     (not (<= S3 U3))
     (not (<= Q3 (+ 16 R3)))
     (not (<= Q3 S3))
     (not (<= O3 (+ 16 P3)))
     (not (<= O3 Q3))
     (not (<= M3 (+ 16 N3)))
     (not (<= M3 O3))
     (not (<= K3 (+ 16 L3)))
     (not (<= K3 M3))
     (not (<= I3 (+ 16 J3)))
     (not (<= I3 K3))
     (not (<= G3 (+ 16 H3)))
     (not (<= G3 I3))
     (not (<= E3 (+ 16 F3)))
     (not (<= E3 G3))
     (not (<= C3 (+ 16 D3)))
     (not (<= C3 E3))
     (not (<= A3 (+ 16 B3)))
     (not (<= A3 C3))
     (not (<= Y2 (+ 16 Z2)))
     (not (<= Y2 A3))
     (not (<= W2 (+ 16 X2)))
     (not (<= W2 Y2))
     (not (<= U2 (+ 16 V2)))
     (not (<= U2 W2))
     (not (<= S2 (+ 16 T2)))
     (not (<= S2 U2))
     (not (<= Q2 (+ 16 R2)))
     (not (<= Q2 S2))
     (not (<= O2 (+ 16 P2)))
     (not (<= O2 Q2))
     (not (<= M2 (+ 16 N2)))
     (not (<= M2 O2))
     (not (<= K2 (+ 16 L2)))
     (not (<= K2 M2))
     (not (<= I2 (+ 16 J2)))
     (not (<= I2 K2))
     (not (<= G2 (+ 16 H2)))
     (not (<= G2 I2))
     (not (<= E2 (+ 16 F2)))
     (not (<= E2 G2))
     (not (<= C2 (+ 16 D2)))
     (not (<= C2 E2))
     (not (<= A2 (+ 16 B2)))
     (not (<= A2 C2))
     (not (<= Y1 (+ 16 Z1)))
     (not (<= Y1 A2))
     (not (<= W1 (+ 4 X1)))
     (not (<= W1 Y1))
     (not (<= U1 (+ 332 V1)))
     (not (<= U1 W1))
     (not (<= S1 (+ 4 T1)))
     (not (<= S1 U1))
     (not (<= Q1 (+ 536 R1)))
     (not (<= Q1 S1))
     (not (<= O1 (+ 240 P1)))
     (not (<= O1 Q1))
     (not (<= M1 (+ 240 N1)))
     (not (<= M1 O1))
     (not (<= K1 (+ 240 L1)))
     (not (<= K1 M1))
     (not (<= I1 (+ 4 J1)))
     (not (<= I1 K1))
     (not (<= G1 (+ 536 H1)))
     (not (<= G1 I1))
     (not (<= E1 (+ 332 F1)))
     (not (<= E1 G1))
     (not (<= C1 (+ 240 D1)))
     (not (<= C1 E1))
     (not (<= A1 (+ 240 B1)))
     (not (<= A1 C1))
     (not (<= Y (+ 332 Z)))
     (not (<= Y A1))
     (not (<= W (+ 4 X)))
     (not (<= W Y))
     (not (<= U (+ 240 V)))
     (not (<= U W))
     (not (<= S (+ 240 T)))
     (not (<= S U))
     (not (<= Q (+ 240 R)))
     (not (<= Q S))
     (not (<= O (+ 240 P)))
     (not (<= O Q))
     (not (<= M (+ 240 N)))
     (not (<= M O))
     (not (<= K (+ 40 L)))
     (not (<= K M))
     (not (<= I (+ 332 J)))
     (not (<= I K))
     (not (<= G (+ 4 H)))
     (not (<= G I))
     (not (<= D (+ 40 F)))
     (not (<= D G))
     (not (<= G6 (+ 16 H6)))
     (not (<= G6 I6))
     (not (<= M6 (+ 16 N6)))
     (not (<= M6 O6))
     (not (<= K6 (+ 16 L6)))
     (not (<= K6 M6))
     (not (<= I6 (+ 16 J6)))
     (not (<= I6 K6))
     (not (<= E6 (+ 16 F6)))
     (not (<= E6 G6))
     (not (<= C6 (+ 16 D6)))
     (not (<= C6 E6))
     (not (<= Q6 (+ 16 R6)))
     (not (<= Q6 S6))
     (not (<= O6 (+ 16 P6)))
     (not (<= O6 Q6))
     (not (<= U6 (+ 16 V6)))
     (not (<= U6 W6))
     (not (<= S6 (+ 16 T6)))
     (not (<= S6 U6))
     (not (<= Y6 (+ 16 A7)))
     (not (<= Y6 Z6))
     (not (<= W6 (+ 16 X6)))
     (not (<= W6 Y6))
     (= E true)
     (= B6 C6))
      )
      (Proc27 Z6 B A E C)
    )
  )
)
(assert
  (forall ( (A Int) (B Int) (C Int) (D Int) (E Bool) (F Int) (G Int) (H Int) (I Int) (J Int) (K Int) (L Int) (M Bool) (N Bool) (v_14 Bool) ) 
    (=>
      (and
        (Proc29 L K J v_14 I H G M F)
        (and (= v_14 true) (= N true) (not M))
      )
      (Proc48 L K J N D E C B A)
    )
  )
)
(assert
  (forall ( (A Int) (B Int) (C Int) (D Bool) (E Int) (F Bool) (G Int) (H Int) (I Int) ) 
    (=>
      (and
        (Proc48 A B C D E F G H I)
        true
      )
      false
    )
  )
)

(check-sat)
(exit)
